gil250_1
0 163 224 82 157 225 38 39 102 15 243 3 190 112 73 198 207 191 19 185 72 21 138 99 232 142 68 202 155 108 244 154 115 145 100 186 81 4 34 95 156 239 192 184 218 149 86 94 88 212 45 187 98 117 92 178 110 60 158 109 20 227 97 132 171 181 162 59 201 245 24 40 17 175 168 66 103 113 42 10 131 214 57 114 148 26 9 153 58 183 150 220 36 217 170 2 125 0 69 8 215 104 141 25 246 140 164 160 180 63 216 161 179 128 143 174 196 48 23 120 22 236 111 85 222 37 6 169 75 226 136 219 84 135 146 237 62 249 64 0